1 - 0
2 - 0
3 - 0
4 - 0
5 - 0
6 - 0
7 - 0
8 - 0
9 - 0
10 - 0
11 - 0
12 - 0
13 - 0
14 - 0
15 - 0
16 - 0
17 - 0
18 - 0
19 - 0
20 - 0
21 - 0
22 - 0
23 - 987
24 - 15170
25 - 25769
26 - 14879
27 - 8871
28 - 6872
29 - 5129
30 - 3817
31 - 2976
32 - 2806
33 - 2094
34 - 1803
35 - 1514
36 - 1234
37 - 1100
38 - 974
39 - 791
40 - 746
41 - 586
42 - 516
43 - 436
44 - 353
45 - 228
46 - 209
47 - 131
48 - 74
49 - 23
50 - 0

0.1 - 47088
0.2 - 23805
0.3 - 12627
0.4 - 6801
0.5 - 3874
0.6 - 2299
0.7 - 1395
0.8 - 995
0.9 - 703
1 - 501
